sat
(
  (define-fun B () String
    "")
  (define-fun A () String
    "")
  (define-fun E () String
    "")
  (define-fun C () String
    "")
  (define-fun F () String
    "")
  (define-fun G () String
    "")
)
